17	4
17	17	17	13	
0	0	0	0	0	3	2	3	4	
7	6	7	8	2	3	6	8	17	
6	4	3	8	1	3	5	9	11	
1	1	5	2	9	3	9	10	13	
6	5	6	3	7	3	7	12	17	
125	2	6	1	4	3	11	12	17	
225	10	3	4	5	2	15	17	
225	6	10	10	5	3	9	14	17	
150	4	10	5	6	2	17	17	
75	6	2	7	6	3	16	17	17	
75	2	3	2	4	3	17	17	17	
25	4	5	6	2	3	16	17	17	
5	4	1	4	10	3	14	16	17	
2	4	6	9	6	3	15	17	17	
9	10	10	6	8	2	17	17	
2	8	6	4	7	3	17	17	17	
0	0	0	0	0	0	
